 C  O 
 1.0000000000000000
     4.0000000000000000    0.0000000000000000    0.0000000000000000
     0.0000000000000000    4.0000000000000000    0.0000000000000000
     0.0000000000000000    0.0000000000000000    4.0000000000000000
 C   O  
   1   1
Cartesian
  1.4000000000000004  2.0000000000000000  2.0000000000000000
  2.5999999999999996  2.0000000000000000  2.0000000000000000
