 C  O                                   
   1.00000000000000     
    10.0000000000000000    0.0000000000000000    0.0000000000000000
     0.0000000000000000   10.0000000000000000    0.0000000000000000
     0.0000000000000000    0.0000000000000000   10.0000000000000000
   C    O 
     1     1
Direct
  0.5000000000000000  0.5000000000000000  0.4500000000000028
  0.5000000000000000  0.5000000000000000  0.5499999999999972
 
  0.00000000E+00  0.00000000E+00  0.00000000E+00
  0.00000000E+00  0.00000000E+00  0.00000000E+00
