INCAR created by Atomic Simulation Environment
 ENCUT = 350.000000
 SIGMA = 0.010000
 GGA = PE
 ISMEAR = 1
 NBANDS = 8
