 C  O 
 1.0000000000000000
    10.0000000000000000    0.0000000000000000    0.0000000000000000
     0.0000000000000000   10.0000000000000000    0.0000000000000000
     0.0000000000000000    0.0000000000000000   10.0000000000000000
 C   O  
   1   1
Cartesian
  5.0000000000000000  5.0000000000000000  4.4500000000000002
  5.0000000000000000  5.0000000000000000  5.5500000000000007
